n = 25;
edge = [| 7, 1 
| 8, 1 
| 12, 1 
| 13, 1 
| 25, 1 
| 1, 2 
| 3, 2 
| 5, 2 
| 7, 2 
| 20, 2 
| 1, 3 
| 6, 3 
| 9, 3 
| 19, 3 
| 20, 3 
| 1, 4 
| 5, 4 
| 6, 4 
| 9, 4 
| 20, 4 
| 14, 5 
| 16, 5 
| 22, 5 
| 5, 6 
| 7, 6 
| 9, 6 
| 10, 6 
| 12, 6 
| 21, 6 
| 22, 6 
| 23, 6 
| 2, 7 
| 14, 7 
| 22, 7 
| 23, 7 
| 25, 7 
| 11, 8 
| 17, 8 
| 19, 8 
| 1, 9 
| 4, 9 
| 8, 9 
| 12, 9 
| 15, 9 
| 21, 9 
| 2, 10 
| 4, 10 
| 8, 10 
| 23, 10 
| 1, 11 
| 6, 11 
| 7, 11 
| 13, 11 
| 14, 11 
| 17, 11 
| 18, 11 
| 23, 11 
| 3, 12 
| 9, 12 
| 11, 12 
| 13, 12 
| 14, 12 
| 18, 12 
| 20, 12 
| 21, 12 
| 2, 13 
| 3, 13 
| 5, 13 
| 10, 13 
| 12, 13 
| 17, 13 
| 19, 13 
| 23, 13 
| 24, 13 
| 25, 13 
| 2, 14 
| 4, 14 
| 6, 14 
| 12, 14 
| 13, 14 
| 15, 14 
| 20, 14 
| 21, 14 
| 5, 15 
| 8, 15 
| 12, 15 
| 19, 15 
| 4, 16 
| 23, 16 
| 2, 17 
| 11, 18 
| 12, 18 
| 13, 18 
| 20, 18 
| 24, 18 
| 6, 19 
| 8, 19 
| 9, 19 
| 18, 19 
| 20, 19 
| 21, 19 
| 4, 20 
| 9, 20 
| 11, 20 
| 12, 20 
| 21, 20 
| 2, 21 
| 5, 21 
| 7, 21 
| 9, 21 
| 13, 21 
| 16, 21 
| 23, 21 
| 25, 21 
| 9, 22 
| 15, 22 
| 25, 22 
| 3, 23 
| 4, 23 
| 12, 23 
| 14, 23 
| 20, 23 
| 2, 24 
| 8, 24 
| 9, 24 
| 13, 24 
| 4, 25 
| 11, 25 
| 15, 25 
| 18, 25 
| 20, 25 
|];
